s td 40 9 48
b 1 1 2 19 21 24 33 36 41 47
b 2 2 9 19 21 24 33 36 41 47
b 3 9 19 21 23 24 33 36 41 47
b 4 9 19 21 22 23 24 33 36 41
b 5 9 19 21 22 23 24 33 36 38
b 6 9 19 21 22 23 25 33 36 38
b 7 9 19 22 23 25 33 36 38 43
b 8 14 22 23 25 33 36 38 43
b 9 3 14 25 33 38
b 10 7 14 22 23 36
b 11 14 18 23 25 43
b 12 14 22 27 38 43
b 13 13 19 25 38 43
b 14 9 22 23 43 46
b 15 19 20 21 25 33
b 16 19 24 33 35 38
b 17 9 22 36 41 42
b 18 4 9 23 36 47
b 19 2 9 12 41 47
b 20 1 2 16 19 21 24 33 41 47
b 21 1 2 16 19 21 24 33 34 41
b 22 1 2 16 19 21 24 26 33 34
b 23 2 8 16 19 21 24 26 33 34
b 24 2 8 10 16 19 21 24 26 34
b 25 2 8 10 16 21 24 26 32 34
b 26 2 8 10 16 24 26 29 32 34
b 27 2 10 16 26 29 32 34 40
b 28 5 16 26 32 40
b 29 2 16 28 34 40
b 30 26 29 31 34 40
b 31 10 29 32 37 40
b 32 8 10 24 29 39
b 33 8 26 29 32 48
b 34 8 10 15 21 32
b 35 10 19 21 24 30
b 36 8 17 21 24 33
b 37 1 16 26 34 45
b 38 1 2 6 34 41
b 39 1 2 11 16 47
b 40 1 36 41 44 47
1 2
1 20
1 40
2 3
2 19
3 4
3 18
4 5
4 17
5 6
5 16
6 7
6 15
7 8
7 13
7 14
8 9
8 10
8 11
8 12
20 21
20 39
21 22
21 38
22 23
22 37
23 24
23 36
24 25
24 35
25 26
25 34
26 27
26 32
26 33
27 28
27 29
27 30
27 31
